column=10;
row=10;
Board=[|0,4,0,0,0,9,0,0,0,0|4,0,0,10,0,8,7,0,0,0|0,0,10,3,2,4,0,0,0,0|5,0,0,1,0,2,8,0,0,0|0,1,8,4,0,0,0,9,7,0|0,2,0,0,0,0,9,0,0,0|9,6,0,0,0,3,0,0,0,0|0,0,6,9,0,7,0,0,4,0|0,0,9,2,0,0,0,0,0,0|7,0,2,0,10,0,0,4,0,0|];
horizontal=[|1,0,0,1,1,0,0,1,0|0,0,0,0,0,1,0,0,0|0,0,0,1,0,1,0,0,0|0,0,0,0,0,0,0,0,0|1,0,0,1,0,0,0,0,0|0,0,1,0,0,0,1,0,0|0,0,1,0,0,0,0,0,0|0,0,0,0,0,0,1,0,0|0,0,0,0,1,1,1,0,0|0,0,0,0,0,0,0,0,0|];
vertical=[|1,0,0,0,0,1,0,1,0,0|0,1,0,0,1,0,0,0,1,0|1,0,0,0,0,0,0,0,0,0|0,0,1,0,0,0,0,1,1,1|0,1,0,0,1,0,0,1,0,0|1,0,1,1,0,0,1,0,0,0|1,0,0,0,0,0,0,1,0,1|0,0,0,0,1,0,1,1,0,0|0,0,0,0,0,1,0,1,1,0|];
